c "854214.clq"
p edge 80 304
e 1 5
e 1 6
e 1 7
e 1 8
e 1 9
e 1 10
e 1 11
e 1 15
e 1 23
e 1 27
e 1 61
e 1 64
e 2 5
e 2 6
e 2 9
e 2 24
e 2 27
e 2 30
e 2 31
e 2 35
e 2 50
e 3 5
e 3 11
e 3 12
e 3 13
e 3 18
e 3 22
e 3 33
e 3 50
e 3 67
e 3 68
e 4 5
e 4 6
e 4 7
e 4 8
e 4 9
e 4 10
e 4 12
e 4 18
e 4 19
e 4 20
e 4 22
e 4 24
e 4 25
e 4 33
e 4 43
e 4 56
e 4 57
e 4 72
e 4 75
e 5 6
e 5 7
e 5 10
e 5 11
e 5 12
e 5 13
e 5 14
e 5 15
e 5 16
e 5 17
e 5 19
e 5 25
e 5 28
e 5 31
e 5 32
e 5 35
e 5 36
e 5 38
e 5 41
e 5 43
e 5 45
e 5 47
e 5 52
e 5 56
e 5 57
e 5 58
e 5 60
e 5 62
e 5 68
e 5 73
e 5 74
e 5 77
e 5 80
e 6 7
e 6 8
e 6 9
e 6 15
e 6 16
e 6 22
e 6 24
e 6 27
e 6 30
e 6 31
e 6 40
e 6 46
e 6 51
e 6 64
e 6 69
e 6 73
e 6 75
e 6 77
e 7 8
e 7 16
e 7 17
e 7 21
e 7 23
e 7 36
e 7 37
e 7 38
e 7 40
e 7 43
e 7 49
e 7 51
e 7 52
e 7 53
e 7 59
e 7 60
e 7 72
e 7 77
e 7 78
e 7 80
e 8 11
e 8 12
e 8 14
e 8 18
e 8 21
e 8 22
e 8 29
e 8 47
e 8 50
e 8 54
e 8 56
e 8 59
e 8 62
e 8 65
e 9 10
e 9 27
e 9 30
e 9 33
e 9 45
e 9 67
e 10 14
e 10 20
e 10 31
e 10 32
e 10 58
e 10 61
e 10 74
e 11 13
e 11 15
e 11 17
e 11 18
e 11 23
e 11 26
e 11 28
e 11 29
e 11 37
e 11 38
e 11 46
e 11 55
e 11 70
e 12 13
e 12 17
e 12 24
e 12 28
e 12 39
e 12 40
e 12 71
e 13 14
e 13 16
e 13 20
e 13 21
e 13 26
e 13 29
e 13 32
e 13 34
e 13 37
e 13 39
e 13 53
e 13 62
e 13 69
e 13 74
e 13 80
e 14 19
e 14 47
e 14 56
e 15 25
e 15 26
e 15 28
e 15 34
e 15 41
e 15 48
e 15 57
e 15 80
e 16 38
e 16 41
e 16 48
e 16 52
e 16 63
e 16 66
e 16 70
e 17 19
e 17 21
e 17 33
e 17 42
e 17 48
e 17 63
e 17 64
e 19 20
e 19 25
e 19 48
e 19 58
e 19 63
e 19 68
e 19 69
e 19 72
e 19 73
e 20 35
e 20 42
e 20 45
e 20 53
e 20 79
e 21 23
e 21 34
e 21 39
e 21 43
e 21 44
e 21 70
e 21 76
e 22 26
e 22 46
e 22 50
e 22 59
e 23 35
e 23 36
e 23 41
e 24 40
e 24 55
e 25 30
e 25 45
e 25 55
e 25 67
e 25 70
e 25 72
e 26 29
e 26 34
e 26 37
e 26 39
e 26 53
e 26 54
e 26 71
e 26 73
e 26 76
e 28 32
e 28 36
e 28 42
e 29 49
e 29 79
e 30 66
e 32 44
e 32 65
e 32 71
e 32 78
e 33 47
e 35 42
e 35 46
e 35 75
e 36 58
e 38 44
e 38 62
e 39 44
e 40 55
e 40 79
e 42 49
e 42 77
e 42 78
e 43 49
e 43 51
e 43 54
e 44 52
e 45 61
e 46 60
e 46 67
e 46 78
e 47 51
e 47 61
e 49 54
e 49 57
e 49 66
e 49 69
e 49 75
e 49 76
e 53 65
e 53 74
e 54 60
e 54 65
e 54 76
e 55 63
e 55 64
e 56 59
e 56 66
e 62 71
e 67 68
e 69 79
